Maximize
 obj: 0 X1
Subject To
 c1:
  + 1 X31 + 1 X37 + 1 X28 + 1 X1 + 1 X35 + 1 X144 + 1 X158
  <= 1
 c2:
  + 1 X49 + 1 X157 + 1 X19 + 1 X124 + 1 X78 + 1 X1 + 1 X102 + 1 X52
  + 1 X169 + 1 X95 + 1 X2 + 1 X88 + 1 X72 + 1 X123 + 1 X9 + 1 X3
  + 1 X76 + 1 X34 + 1 X27 + 1 X174
  <= 1
 c3:
  + 1 X120 + 1 X134 + 1 X55 + 1 X139 + 1 X8 + 1 X121 + 1 X14 + 1 X7
  <= 1
 c4:
  + 1 X134 + 1 X41 + 1 X50 + 1 X101 + 1 X12 + 1 X29 + 1 X91 + 1 X65
  + 1 X104 + 1 X99 + 1 X103 + 1 X40 + 1 X62 + 1 X51 + 1 X14 + 1 X83
  + 1 X131 + 1 X8
  <= 1
 c5:
  + 1 X35 + 1 X164
  <= 1
 c6:
  + 1 X46 + 1 X151 + 1 X102 + 1 X88 + 1 X23
  <= 1
 c7:
  + 1 X12 + 1 X154 + 1 X144 + 1 X135 + 1 X9 + 1 X160 + 1 X84 + 1 X26
  + 1 X157 + 1 X114 + 1 X148 + 1 X56
  <= 1
 c8:
  + 1 X116 + 1 X49 + 1 X155 + 1 X105 + 1 X44 + 1 X81 + 1 X167 + 1 X138
  + 1 X88 + 1 X61 + 1 X3 + 1 X97 + 1 X152 + 1 X92 + 1 X23 + 1 X31
  + 1 X110 + 1 X147
  <= 1
 c9:
  + 1 X3 + 1 X55 + 1 X147 + 1 X7 + 1 X166 + 1 X43 + 1 X6 + 1 X64
  + 1 X122 + 1 X121 + 1 X52 + 1 X86 + 1 X128 + 1 X154
  <= 1
 c10:
  + 1 X29 + 1 X22 + 1 X2 + 1 X14 + 1 X44 + 1 X76 + 1 X86 + 1 X161
  + 1 X97 + 1 X63 + 1 X164 + 1 X37 + 1 X34 + 1 X126
  <= 1
 c11:
  + 1 X154 + 1 X38 + 1 X3 + 1 X61 + 1 X53 + 1 X69 + 1 X172 + 1 X119
  + 1 X164 + 1 X73 + 1 X32 + 1 X83 + 1 X78 + 1 X156 + 1 X89
  <= 1
 c12:
  + 1 X116 + 1 X111 + 1 X113 + 1 X7 + 1 X143 + 1 X79 + 1 X10 + 1 X87
  + 1 X9 + 1 X156 + 1 X48 + 1 X105
  <= 1
 c13:
  + 1 X27 + 1 X114 + 1 X36 + 1 X153 + 1 X127 + 1 X94 + 1 X41 + 1 X110
  + 1 X28 + 1 X55 + 1 X17 + 1 X66 + 1 X147 + 1 X99 + 1 X22 + 1 X57
  + 1 X107 + 1 X1 + 1 X6 + 1 X156
  <= 1
 c14:
  + 1 X157 + 1 X1 + 1 X117 + 1 X54 + 1 X156 + 1 X62 + 1 X152 + 1 X6
  + 1 X108 + 1 X121 + 1 X115 + 1 X171 + 1 X163 + 1 X149 + 1 X14 + 1 X34
  + 1 X99
  <= 1
 c15:
  + 1 X44 + 1 X121 + 1 X113 + 1 X166 + 1 X19 + 1 X145 + 1 X2 + 1 X75
  + 1 X86 + 1 X129 + 1 X47 + 1 X60 + 1 X58 + 1 X109 + 1 X88 + 1 X8
  + 1 X158 + 1 X127 + 1 X51
  <= 1
 c16:
  + 1 X118 + 1 X56 + 1 X43 + 1 X173 + 1 X135 + 1 X94 + 1 X149 + 1 X10
  <= 1
 c17:
  + 1 X43 + 1 X97 + 1 X59 + 1 X41 + 1 X52 + 1 X110 + 1 X3 + 1 X99
  + 1 X139 + 1 X171 + 1 X133 + 1 X32 + 1 X42
  <= 1
 c18:
  + 1 X148 + 1 X132 + 1 X161 + 1 X83 + 1 X31 + 1 X160 + 1 X91
  <= 1
 c19:
  + 1 X152 + 1 X96 + 1 X91 + 1 X105 + 1 X68 + 1 X85 + 1 X158 + 1 X99
  + 1 X17 + 1 X2 + 1 X107 + 1 X64 + 1 X100 + 1 X115
  <= 1
 c20:
  + 1 X70 + 1 X3 + 1 X74 + 1 X25 + 1 X122 + 1 X140 + 1 X112 + 1 X15
  + 1 X16 + 1 X12 + 1 X96 + 1 X108
  <= 1
 c21:
  + 1 X167 + 1 X138 + 1 X29 + 1 X111 + 1 X100 + 1 X24 + 1 X7 + 1 X54
  + 1 X21 + 1 X130 + 1 X57 + 1 X173 + 1 X42 + 1 X102 + 1 X4 + 1 X41
  + 1 X2 + 1 X132 + 1 X140
  <= 1
 c22:
  + 1 X39 + 1 X116 + 1 X53 + 1 X125 + 1 X144 + 1 X134 + 1 X135 + 1 X169
  + 1 X150
  <= 1
 c23:
  + 1 X169 + 1 X101 + 1 X18 + 1 X134 + 1 X140 + 1 X84 + 1 X111 + 1 X132
  + 1 X41 + 1 X139 + 1 X58 + 1 X164 + 1 X94 + 1 X28 + 1 X78
  <= 1
 c24:
  + 1 X7 + 1 X109
  <= 1
 c25:
  + 1 X94 + 1 X167 + 1 X88 + 1 X79 + 1 X1 + 1 X136 + 1 X43 + 1 X173
  + 1 X44 + 1 X99 + 1 X19 + 1 X49
  <= 1
 c26:
  + 1 X129 + 1 X67 + 1 X21 + 1 X115 + 1 X155 + 1 X44 + 1 X18 + 1 X59
  + 1 X166 + 1 X163 + 1 X158 + 1 X148 + 1 X157 + 1 X174 + 1 X49 + 1 X139
  + 1 X23
  <= 1
 c27:
  + 1 X101 + 1 X122 + 1 X77 + 1 X62 + 1 X80 + 1 X90 + 1 X161 + 1 X84
  + 1 X10 + 1 X24 + 1 X120 + 1 X140 + 1 X19 + 1 X2
  <= 1
 c28:
  + 1 X69 + 1 X61 + 1 X119 + 1 X93 + 1 X126 + 1 X120 + 1 X136 + 1 X130
  + 1 X131 + 1 X163 + 1 X5 + 1 X104 + 1 X17 + 1 X55 + 1 X139 + 1 X51
  <= 1
 c29:
  + 1 X85 + 1 X58 + 1 X46 + 1 X126 + 1 X4 + 1 X70 + 1 X120 + 1 X14
  + 1 X30 + 1 X119
  <= 1
 c30:
  + 1 X127 + 1 X147 + 1 X50 + 1 X142 + 1 X3 + 1 X19 + 1 X65 + 1 X103
  + 1 X79
  <= 1
 c31:
  + 1 X16 + 1 X32 + 1 X65 + 1 X101 + 1 X18 + 1 X99 + 1 X63 + 1 X71
  + 1 X113 + 1 X133 + 1 X24 + 1 X86 + 1 X170 + 1 X37 + 1 X68 + 1 X124
  + 1 X58 + 1 X91 + 1 X76 + 1 X173
  <= 1
 c32:
  + 1 X20 + 1 X95 + 1 X153 + 1 X151 + 1 X146 + 1 X100
  <= 1
 c33:
  + 1 X90 + 1 X2 + 1 X135 + 1 X12 + 1 X19 + 1 X153
  <= 1
 c34:
  + 1 X12 + 1 X20 + 1 X30 + 1 X127 + 1 X143 + 1 X38 + 1 X46 + 1 X160
  + 1 X167
  <= 1
 c35:
  + 1 X75 + 1 X48 + 1 X86 + 1 X148 + 1 X149 + 1 X39 + 1 X53
  <= 1
 obj1:
  + 58 X1 + 19 X2 + 5 X3 + 81 X4 + 18 X5 + 42 X6 + 70 X7 + 8 X8
  + 84 X9 + 50 X10 + 68 X11 + 24 X12 + 65 X13 + 72 X14 + 37 X15 + 29 X16
  + 27 X17 + 71 X18 + 72 X19 + 75 X20 + 47 X21 + 8 X22 + 49 X23 + 5 X24
  + 67 X25 + 51 X26 + 47 X27 + 100 X28 + 27 X29 + 10 X30 + 64 X31 + 58 X32
  + 58 X33 + 48 X34 + 34 X35 + 17 X36 + 55 X37 + 19 X38 + 32 X39 + 6 X40
  + 24 X41 + 61 X42 + 80 X43 + 2 X44 + 9 X45 + 3 X46 + 22 X47 + 53 X48
  + 40 X49 + 80 X50 + 74 X51 + 33 X52 + 93 X53 + 63 X54 + 29 X55 + 36 X56
  + 70 X57 + 29 X58 + 76 X59 + 18 X60 + 3 X61 + 35 X62 + 90 X63 + 9 X64
  + 11 X65 + 26 X66 + 11 X67 + 91 X68 + 66 X69 + 28 X70 + 16 X71 + 45 X72
  + 69 X73 + 61 X74 + 23 X75 + 55 X76 + 74 X77 + 72 X78 + 12 X79 + 47 X80
  + 60 X81 + 9 X82 + 79 X83 + 17 X84 + 61 X85 + 16 X86 + 36 X87 + 27 X88
  + 49 X89 + 48 X90 + 31 X91 + 76 X92 + 93 X93 + 46 X94 + 4 X95 + 46 X96
  + 69 X97 + 93 X98 + 6 X99 + 81 X100 + 70 X101 + 36 X102 + 30 X103 + 100 X104
  + 12 X105 + 79 X106 + 91 X107 + 33 X108 + 99 X109 + 82 X110 + 16 X111 + 16 X112
  + 87 X113 + 4 X114 + 30 X115 + 85 X116 + 50 X117 + 87 X118 + 82 X119 + 34 X120
  + 46 X121 + 77 X122 + 71 X123 + 90 X124 + 38 X125 + 42 X126 + 59 X127 + 97 X128
  + 44 X129 + 5 X130 + 19 X131 + 90 X132 + 3 X133 + 12 X134 + 54 X135 + 97 X136
  + 7 X137 + 75 X138 + 26 X139 + 96 X140 + 75 X141 + 20 X142 + 43 X143 + 79 X144
  + 43 X145 + 76 X146 + 86 X147 + 52 X148 + 12 X149 + 30 X150 + 43 X151 + 14 X152
  + 6 X153 + 61 X154 + 78 X155 + 23 X156 + 64 X157 + 54 X158 + 96 X159 + 51 X160
  + 47 X161 + 94 X162 + 2 X163 + 79 X164 + 1 X165 + 54 X166 + 13 X167 + 84 X168
  + 88 X169 + 54 X170 + 25 X171 + 30 X172 + 62 X173 + 63 X174 + 8 X175
  >= 1
 obj2:
  + 37 X1 + 75 X2 + 22 X3 + 29 X4 + 46 X5 + 77 X6 + 43 X7 + 58 X8
  + 52 X9 + 27 X10 + 90 X11 + 84 X12 + 92 X13 + 43 X14 + 64 X15 + 45 X16
  + 93 X17 + 15 X18 + 56 X19 + 68 X20 + 26 X21 + 73 X22 + 86 X23 + 35 X24
  + 38 X25 + 97 X26 + 84 X27 + 5 X28 + 14 X29 + 10 X30 + 22 X31 + 39 X32
  + 25 X33 + 13 X34 + 26 X35 + 89 X36 + 34 X37 + 11 X38 + 85 X39 + 11 X40
  + 65 X41 + 47 X42 + 88 X43 + 65 X44 + 31 X45 + 66 X46 + 91 X47 + 71 X48
  + 95 X49 + 34 X50 + 7 X51 + 1 X52 + 76 X53 + 82 X54 + 90 X55 + 72 X56
  + 50 X57 + 34 X58 + 46 X59 + 14 X60 + 11 X61 + 47 X62 + 53 X63 + 6 X64
  + 22 X65 + 3 X66 + 65 X67 + 28 X68 + 32 X69 + 43 X70 + 20 X71 + 66 X72
  + 3 X73 + 1 X74 + 22 X75 + 82 X76 + 97 X77 + 32 X78 + 39 X79 + 58 X80
  + 28 X81 + 98 X82 + 59 X83 + 58 X84 + 16 X85 + 68 X86 + 79 X87 + 73 X88
  + 71 X89 + 10 X90 + 68 X91 + 40 X92 + 77 X93 + 8 X94 + 42 X95 + 92 X96
  + 17 X97 + 25 X98 + 19 X99 + 21 X100 + 33 X101 + 80 X102 + 93 X103 + 68 X104
  + 47 X105 + 91 X106 + 2 X107 + 19 X108 + 35 X109 + 30 X110 + 37 X111 + 23 X112
  + 28 X113 + 17 X114 + 97 X115 + 1 X116 + 43 X117 + 23 X118 + 27 X119 + 45 X120
  + 53 X121 + 57 X122 + 87 X123 + 34 X124 + 54 X125 + 84 X126 + 76 X127 + 53 X128
  + 70 X129 + 70 X130 + 45 X131 + 53 X132 + 70 X133 + 53 X134 + 84 X135 + 24 X136
  + 81 X137 + 40 X138 + 23 X139 + 62 X140 + 76 X141 + 99 X142 + 85 X143 + 71 X144
  + 24 X145 + 91 X146 + 71 X147 + 33 X148 + 42 X149 + 60 X150 + 56 X151 + 11 X152
  + 55 X153 + 19 X154 + 21 X155 + 66 X156 + 42 X157 + 86 X158 + 90 X159 + 22 X160
  + 24 X161 + 1 X162 + 19 X163 + 15 X164 + 65 X165 + 11 X166 + 65 X167 + 1 X168
  + 34 X169 + 24 X170 + 36 X171 + 77 X172 + 35 X173 + 86 X174 + 35 X175
  >= 2
 obj3:
  + 76 X1 + 8 X2 + 51 X3 + 26 X4 + 42 X5 + 83 X6 + 89 X7 + 28 X8
  + 7 X9 + 96 X10 + 30 X11 + 71 X12 + 28 X13 + 31 X14 + 17 X15 + 55 X16
  + 59 X17 + 38 X18 + 30 X19 + 45 X20 + 25 X21 + 91 X22 + 55 X23 + 30 X24
  + 24 X25 + 13 X26 + 68 X27 + 14 X28 + 37 X29 + 75 X30 + 69 X31 + 45 X32
  + 81 X33 + 42 X34 + 34 X35 + 66 X36 + 27 X37 + 38 X38 + 16 X39 + 21 X40
  + 67 X41 + 19 X42 + 78 X43 + 75 X44 + 50 X45 + 3 X46 + 14 X47 + 80 X48
  + 64 X49 + 8 X50 + 66 X51 + 21 X52 + 34 X53 + 67 X54 + 50 X55 + 92 X56
  + 91 X57 + 65 X58 + 48 X59 + 70 X60 + 28 X61 + 15 X62 + 93 X63 + 50 X64
  + 37 X65 + 29 X66 + 99 X67 + 14 X68 + 2 X69 + 99 X70 + 99 X71 + 4 X72
  + 94 X73 + 51 X74 + 37 X75 + 45 X76 + 81 X77 + 59 X78 + 71 X79 + 4 X80
  + 8 X81 + 18 X82 + 71 X83 + 93 X84 + 49 X85 + 68 X86 + 75 X87 + 21 X88
  + 68 X89 + 23 X90 + 76 X91 + 69 X92 + 30 X93 + 47 X94 + 96 X95 + 37 X96
  + 68 X97 + 52 X98 + 27 X99 + 91 X100 + 83 X101 + 70 X102 + 45 X103 + 51 X104
  + 51 X105 + 57 X106 + 4 X107 + 29 X108 + 62 X109 + 37 X110 + 81 X111 + 36 X112
  + 22 X113 + 64 X114 + 25 X115 + 15 X116 + 52 X117 + 45 X118 + 44 X119 + 3 X120
  + 45 X121 + 15 X122 + 44 X123 + 57 X124 + 78 X125 + 100 X126 + 78 X127 + 65 X128
  + 64 X129 + 48 X130 + 74 X131 + 47 X132 + 66 X133 + 86 X134 + 60 X135 + 17 X136
  + 38 X137 + 51 X138 + 37 X139 + 30 X140 + 83 X141 + 65 X142 + 13 X143 + 43 X144
  + 83 X145 + 16 X146 + 81 X147 + 50 X148 + 43 X149 + 44 X150 + 87 X151 + 62 X152
  + 45 X153 + 87 X154 + 64 X155 + 88 X156 + 47 X157 + 57 X158 + 87 X159 + 21 X160
  + 83 X161 + 50 X162 + 85 X163 + 92 X164 + 91 X165 + 11 X166 + 38 X167 + 18 X168
  + 11 X169 + 97 X170 + 38 X171 + 32 X172 + 85 X173 + 27 X174 + 59 X175
  >= 3
Binary
 X1
 X2
 X3
 X4
 X5
 X6
 X7
 X8
 X9
 X10
 X11
 X12
 X13
 X14
 X15
 X16
 X17
 X18
 X19
 X20
 X21
 X22
 X23
 X24
 X25
 X26
 X27
 X28
 X29
 X30
 X31
 X32
 X33
 X34
 X35
 X36
 X37
 X38
 X39
 X40
 X41
 X42
 X43
 X44
 X45
 X46
 X47
 X48
 X49
 X50
 X51
 X52
 X53
 X54
 X55
 X56
 X57
 X58
 X59
 X60
 X61
 X62
 X63
 X64
 X65
 X66
 X67
 X68
 X69
 X70
 X71
 X72
 X73
 X74
 X75
 X76
 X77
 X78
 X79
 X80
 X81
 X82
 X83
 X84
 X85
 X86
 X87
 X88
 X89
 X90
 X91
 X92
 X93
 X94
 X95
 X96
 X97
 X98
 X99
 X100
 X101
 X102
 X103
 X104
 X105
 X106
 X107
 X108
 X109
 X110
 X111
 X112
 X113
 X114
 X115
 X116
 X117
 X118
 X119
 X120
 X121
 X122
 X123
 X124
 X125
 X126
 X127
 X128
 X129
 X130
 X131
 X132
 X133
 X134
 X135
 X136
 X137
 X138
 X139
 X140
 X141
 X142
 X143
 X144
 X145
 X146
 X147
 X148
 X149
 X150
 X151
 X152
 X153
 X154
 X155
 X156
 X157
 X158
 X159
 X160
 X161
 X162
 X163
 X164
 X165
 X166
 X167
 X168
 X169
 X170
 X171
 X172
 X173
 X174
 X175
End
